20 95 
1 3 1
1 4 1
1 7 1
1 9 1
1 11 1
1 13 1
1 18 1
1 20 1
2 5 1
2 7 1
2 12 1
2 13 1
2 14 1
2 15 1
2 16 1
2 18 1
3 5 1
3 6 1
3 7 1
3 8 1
3 12 1
3 13 1
3 14 1
3 16 1
3 17 1
4 6 1
4 8 1
4 9 1
4 11 1
4 16 1
4 19 1
4 20 1
5 7 1
5 8 1
5 9 1
5 13 1
5 15 1
5 18 1
6 9 1
6 10 1
6 12 1
6 16 1
6 17 1
6 18 1
7 8 1
7 10 1
7 11 1
7 12 1
7 13 1
7 16 1
7 17 1
7 20 1
8 9 1
8 10 1
8 11 1
8 12 1
8 15 1
8 16 1
8 18 1
8 19 1
9 10 1
9 12 1
9 16 1
9 17 1
10 12 1
10 13 1
10 16 1
10 18 1
10 19 1
10 20 1
11 12 1
11 14 1
11 15 1
11 19 1
12 13 1
12 15 1
12 18 1
12 19 1
13 14 1
13 15 1
13 16 1
13 18 1
14 16 1
14 17 1
14 18 1
15 16 1
15 18 1
15 19 1
15 20 1
16 17 1
16 18 1
16 20 1
17 20 1
18 20 1
19 20 1
